headline_hunt/bets/cascade_aux_encoding/comparisons/cadical_50k_full9_2026-04-25/bit17_aux_force_sr61_n32_bit17_m427c281d_fill80000000.log
c --- [ banner ] -------------------------------------------------------------
c 
c CaDiCaL SAT Solver
c Copyright (c) 2016-2025
c A. Biere, M. Fleury, N. Froleyks, K. Fazekas, F. Pollitt, T. Faller
c JKU Linz, University of Freiburg, TU Wien
c 
c Version 3.0.0
c Apple clang version 17.0.0 (clang-1700.6.3.2) -Wall -Wextra -O3 -DNDEBUG -DNCLOSEFROM
c Tue Dec 23 21:53:38 UTC 2025 Darwin Tahoe-arm64.local 25.2.0 arm64
c 
c --- [ limit ] --------------------------------------------------------------
c 
c setting conflict limit to 50000 conflicts (due to '50000')
c 
c --- [ parsing input ] ------------------------------------------------------
c 
c reading DIMACS file from 'headline_hunt/bets/cascade_aux_encoding/cnfs/aux_force_sr61_n32_bit17_m427c281d_fill80000000.cnf'
c opening file to read 'headline_hunt/bets/cascade_aux_encoding/cnfs/aux_force_sr61_n32_bit17_m427c281d_fill80000000.cnf'
c found 'p cnf 12849 53838' header
c parsed 53838 clauses in 0.01 seconds process time
c 
c --- [ options ] ------------------------------------------------------------
c 
c   --seed=5                       (different from default '0')
c 
c --- [ solving ] ------------------------------------------------------------
c 
c time measured in process time since initialization
c 
c  seconds  reduction conflicts       size tier2       variables
c         MB    restarts   redundant    glue  trail         remaining
c          level     rate       size/glu tier1  irredundant
c 
c *  0.01  0  0 0   0  0    0    0 0.0 0 0 2 6  0% 53325 12368 96%
c (  0.01  0  0 0   0  0    0    0 0.0 0 0 2 6  0% 53325 12368 96%
c .  0.01  0  0 0   0  0    0    0 0.0 0 0 2 6  0% 52301 12368 96%
c c  0.03  0  0 0   0  0    0    0 0.0 0 0 2 6  0% 49615 11906 93%
c d  0.03  0  0 0   0  0    0    0 0.0 0 0 2 6  0% 45587 10579 82%
c 2  0.03  0  0 0   0  0    0    0 0.0 0 0 2 6  0% 45447 10579 82%
c f  0.04  0  0 0   0  0    0    0 0.0 0 0 2 6  0% 45181 10845 84%
c e  0.06  0  0 0   0  0    0    0 0.0 0 0 2 6  0% 37342 6855 53%
c s  0.06  0  0 0   0  0    0    0 0.0 0 0 2 6  0% 37339 6855 53%
c s  0.06  0  0 0   0  0    0    0 0.0 0 0 2 6  0% 37325 6855 53%
c P  0.07  0  0 0   0  0    0    0 0.0 0 0 2 6  0% 37325 6855 53%
c )  0.07  0  0 0   0  0    0    0 0.0 0 0 2 6  0% 37325 6855 53%
c {  0.07  0  0 0   0  0    0    0 0.0 0 0 2 6  0% 37325 6855 53%
c -  0.07  0 951 1   8 35  300  244 1.5 4 3 2 6 18% 37325 6855 53%
c -  0.07  0 517 2  41 34  733  584 1.6 4 3 2 6 15% 37325 6855 53%
c }  0.08  0 399 2  50 27 1001  813 1.6 4 3 2 6 14% 37325 6855 53%
c [  0.08  0  0 2  50  0 1001  813 0.0 0 0 2 6  0% 37325 6855 53%
c O  0.08  0 188 2  50 189 1002  814 1.5 3 2 2 6 18% 37325 6855 53%
c -  0.08  0 476 3  50  2 1411  915 2.0 25 13 2 6 24% 37325 6855 53%
c ]  0.08  0 475 3  50  2 1608 1090 1.9 27 14 2 6 24% 37325 6855 53%
c 
c  seconds   reduction conflicts       size tier2      variables
c         MB     restarts   redundant    glue  trail        remaining
c           level     rate       size/glu tier1  irredundant
c 
c {  0.08  0 399 3  50 27 1608 1090 1.6 4 3 2 6 14% 37325 6855 53%
c 2  0.09  0 309 3 127 26 2236 1620 1.6 5 3 2 6 12% 37263 6855 53%
c c  0.10  0 309 3 127 26 2236 1558 1.6 5 3 2 6 12% 37191 6836 53%
c d  0.11  0 309 3 127 26 2236 1535 1.6 5 3 2 6 12% 37165 6823 53%
c -  0.11  0 297 4 139 25 2350 1349 1.6 5 3 2 6 12% 37165 6823 53%
c }  0.12  0 245 4 288 25 2903 1830 1.7 6 3 2 6 13% 37165 6823 53%
c [  0.12  0 475 4 288  2 2903 1830 1.9 27 14 2 6 46% 37165 6823 53%
c I  0.12  0 416 4 288  2 3004 1921 2.0 26 13 2 6 43% 37165 6823 53%
c -  0.13  0 269 5 289  3 3563 1998 2.3 27 12 2 6 32% 37165 6823 53%
c ]  0.14  0 217 5 289  3 4113 2506 2.8 40 14 2 6 34% 37165 6823 53%
c {  0.14  0 245 5 289 25 4113 2506 1.7 6 3 2 6 13% 37165 6823 53%
c s  0.15  0 237 5 306 24 4217 2599 1.7 6 3 2 6 13% 37141 6823 53%
c t  0.15  0 237 5 306 24 4217 2599 1.7 6 3 2 6 13% 37139 6823 53%
c e  0.17  0 237 5 306 24 4217 2085 1.7 6 3 2 6 13% 36990 6333 49%
c s  0.17  0 237 5 306 24 4217 2039 1.7 6 3 2 6 13% 36859 6333 49%
c c  0.19  0 203 5 425 22 4736 2419 1.7 6 4 2 6 11% 36818 6320 49%
c d  0.19  0 203 5 425 22 4736 2393 1.7 6 4 2 6 11% 36802 6312 49%
c =  0.20  0 203 5 425 22 4736 2393 1.7 6 4 2 6 11% 36718 6249 49%
c -  0.20  0 188 6 489 22 5055 1959 1.7 6 4 2 3 11% 36718 6249 49%
c O  0.22  0 156 6 682 20 6005 2799 1.7 7 4 2 3 10% 36718 6249 49%
c 
c  seconds   reduction conflicts       size tier2      variables
c         MB     restarts   redundant    glue  trail        remaining
c           level     rate       size/glu tier1  irredundant
c 
c }  0.23  0 141 6 828 19 6805 3488 1.7 8 4 2 3 10% 36718 6249 49%
c [  0.23  0 217 6 828  3 6805 3488 2.8 40 14 2 6 34% 36718 6249 49%
c -  0.23  0 215 7 828  3 6833 2773 2.8 40 14 2 6 33% 36718 6249 49%
c c  0.25  0 195 7 829  3 7339 3215 2.6 40 15 3 11 31% 36710 6245 49%
c =  0.26  0 195 7 829  3 7339 3205 2.6 40 15 3 11 31% 36670 6176 48%
c t  0.26  0 195 7 829  3 7339 3203 2.6 40 15 3 11 31% 36670 6176 48%
c 2  0.26  0 195 7 829  3 7339 3203 2.6 40 15 3 11 31% 36668 6176 48%
c f  0.26  0 195 7 829  3 7339 3203 2.6 40 15 3 11 30% 36396 6444 50%
c -  0.29  0 160 8 829  2 8899 3209 2.6 44 17 3 11 31% 36396 6444 50%
c ]  0.31  0 151 8 830  2 9617 3864 2.6 42 16 3 9 31% 36396 6444 50%
c {  0.31  0 141 8 830 19 9617 3864 1.7 8 4 2 3 10% 36396 6444 50%
c #  0.31  0 135 8 918 19 10006 4194 1.7 8 5 2 3 10% 36396 6444 50%
c c  0.32  0 134 8 927 19 10036 4175 1.7 8 5 2 3 10% 36345 6439 50%
c d  0.32  0 134 8 927 19 10036 4138 1.7 8 5 2 3 10% 36333 6433 50%
c 2  0.33  0 134 8 927 19 10036 4137 1.7 8 5 2 3 10% 36332 6433 50%
c =  0.33  0 134 8 927 19 10036 4137 1.7 8 5 2 3 10% 36331 6383 50%
c t  0.33  0 134 8 927 19 10036 4136 1.7 8 5 2 3 10% 36331 6383 50%
c -  0.35  0 120 9 1111 17 11259 3820 1.7 8 5 2 3 11% 36331 6383 50%
c d  0.37  0 109 9 1346 16 12820 5026 1.8 9 5 2 3 12% 36331 6364 50%
c c  0.38  0 109 9 1346 16 12820 5026 1.8 9 5 2 3 12% 36280 6364 50%
c 
c  seconds   reductions  conflicts       size tier2      variables
c         MB     restarts     redundant    glue  trail        remaining
c           level      rate        size/glu tier1  irredundant
c 
c d  0.39  0 109 9 1346 16 12820 4995 1.8 9 5 2 3 12% 36264 6356 49%
c =  0.39  0 109 9 1346 16 12820 4995 1.8 9 5 2 3 12% 36202 6309 49%
c f  0.40  0 109 9 1346 16 12820 4990 1.8 9 5 2 3 12% 36162 6350 49%
c }  0.41  0 104 9 1521 16 13660 5751 1.8 9 5 1 2 12% 36162 6350 49%
c [  0.41  0 151 9 1521  2 13660 5751 2.6 42 16 3 9 34% 36162 6350 49%
c -  0.43  0 147 10 1521  2 13911 3783 2.6 43 16 3 9 34% 36162 6350 49%
c e  0.45  0 141 10 1521  2 14382 3442 2.7 43 16 3 9 35% 36128 6036 47%
c s  0.45  0 141 10 1521  2 14382 3409 2.7 43 16 3 9 35% 35782 6036 47%
c e  0.45  0 141 10 1521  2 14382 3404 2.7 43 16 3 9 35% 35770 6034 47%
c B  0.46  0 135 10 1522  2 15007 3993 2.7 41 16 3 9 34% 35770 6034 47%
c 2  0.48  0 133 10 1523  2 15685 4602 2.7 40 15 3 9 32% 35770 6034 47%
c =  0.49  0 133 10 1523  2 15685 4602 2.7 40 15 3 9 32% 35711 5934 46%
c u  0.50  0 133 10 1523  2 15685 3928 2.7 40 15 3 9 32% 35711 5934 46%
c v  0.50  0 133 10 1523  2 15685 3844 2.7 40 15 3 9 32% 35711 5934 46%
c w  0.50  0 133 10 1523  2 15685 3844 2.7 40 15 3 9 32% 35711 5934 46%
c x  0.50  0 133 10 1523  2 15685 3842 2.7 40 15 3 9 32% 35658 5934 46%
c t  0.50  0 133 10 1523  2 15685 3841 2.7 40 15 3 9 32% 35658 5934 46%
c -  0.53  0 132 11 1523  2 16859 2880 2.4 40 17 3 9 30% 35658 5934 46%
c ]  0.55  0 131 11 1523  2 17647 3620 2.4 40 17 3 9 29% 35658 5934 46%
c {  0.55  0 104 11 1523 16 17647 3620 1.8 9 5 1 2 12% 35658 5934 46%
c 
c  seconds   reductions   conflicts       size tier2      variables
c         MB      restarts     redundant    glue  trail        remaining
c           level       rate        size/glu tier1  irredundant
c 
c d  0.56  0 101 11 1705 16 18625 4435 1.8 9 5 1 2 12% 35658 5924 46%
c =  0.57  0 101 11 1705 16 18625 4435 1.8 9 5 1 2 12% 35654 5856 46%
c 2  0.57  0 101 11 1705 16 18625 4435 1.8 9 5 1 2 12% 35652 5856 46%
c f  0.58  0 101 11 1705 16 18625 4435 1.8 9 5 1 2 12% 35594 5910 46%
c -  0.61  0 96 12 1955 15 20105 3616 1.8 10 5 1 2 12% 35594 5910 46%
c B  0.62  0 93 12 2071 15 21008 4424 1.8 10 5 1 2 12% 35594 5910 46%
c d  0.63  0 92 12 2192 15 21636 4974 1.8 10 6 1 2 12% 35594 5905 46%
c c  0.64  0 92 12 2192 15 21636 4974 1.8 10 6 1 2 12% 35585 5905 46%
c d  0.64  0 92 12 2192 15 21636 4972 1.8 10 6 1 2 12% 35581 5903 46%
c 2  0.64  0 92 12 2192 15 21636 4972 1.8 10 6 1 2 12% 35579 5903 46%
c =  0.65  0 92 12 2192 15 21636 4972 1.8 10 6 1 2 12% 35570 5873 46%
c t  0.65  0 92 12 2192 15 21636 4972 1.8 10 6 1 2 12% 35568 5873 46%
c -  0.68  0 87 13 2505 14 23650 4542 1.8 10 6 1 2 12% 35568 5873 46%
c }  0.68  0 87 13 2513 14 23696 4580 1.8 10 6 1 2 12% 35568 5873 46%
c [  0.68  0 131 13 2513  2 23696 4580 2.4 40 17 3 9 29% 35568 5873 46%
c c  0.71  0 129 13 2514  2 24713 5536 2.3 40 17 3 9 28% 35566 5872 46%
c =  0.72  0 129 13 2514  2 24713 5533 2.3 40 17 3 9 28% 35558 5827 45%
c 2  0.72  0 129 13 2514  2 24713 5532 2.3 40 17 3 9 28% 35558 5827 45%
c f  0.73  0 129 13 2514  2 24713 5519 2.3 40 17 3 9 28% 35534 5851 46%
c -  0.80  0 123 14 2514  2 27497 5217 2.6 44 17 3 9 32% 35534 5851 46%
c 
c  seconds   reductions   conflicts       size   tier2      variables
c         MB      restarts     redundant     glue   trail        remaining
c           level       rate        size/glue  tier1  irredundant
c 
c =  0.83  0 123 14 2514  2 27852 5565 2.6 43 17 3 9 32% 35530 5828 45%
c t  0.83  0 123 14 2514  2 27852 5565 2.6 43 17 3 9 32% 35529 5828 45%
c W  0.85  0 123 14 2515  2 28009 5708 2.6 43 17 3 9 32% 35529 5828 45%
c e  0.88  0 117 14 2516  2 29788 7124 2.6 42 16 3 9 30% 31260 5409 42%
c s  0.88  0 117 14 2516  2 29788 7109 2.6 42 16 3 9 30% 31227 5409 42%
c e  0.89  0 117 14 2516  2 29788 7098 2.6 42 16 3 9 30% 31223 5406 42%
c ]  0.91  0 119 14 2517  2 30496 7756 2.5 43 17 3 9 30% 31223 5406 42%
c {  0.91  0 87 14 2517 14 30496 7756 1.8 10 6 1 2 13% 31223 5406 42%
c -  0.93  0 85 15 2678 14 31643 5516 1.8 10 6 1 2 13% 31223 5406 42%
c 2  0.93  0 85 15 2678 14 31643 5514 1.8 10 6 1 2 13% 31223 5406 42%
c u  0.94  0 85 15 2678 14 31643 4335 1.8 10 6 1 2 13% 30918 5406 42%
c v  0.95  0 85 15 2678 14 31643 4255 1.8 10 6 1 2 13% 30918 5406 42%
c w  0.95  0 85 15 2678 14 31643 4254 1.8 10 6 1 2 13% 30918 5406 42%
c t  0.95  0 85 15 2678 14 31643 4252 1.8 10 6 1 2 13% 30918 5406 42%
c f  0.95  0 85 15 2678 14 31643 4245 1.8 10 6 1 2 13% 30881 5423 42%
c W  1.03  0 79 15 3431 14 36010 8195 1.8 11 6 1 2 13% 30881 5423 42%
c -  1.03  0 79 16 3433 14 36091 5454 1.8 11 6 1 2 13% 30881 5423 42%
c d  1.03  0 79 16 3433 14 36091 5411 1.8 11 6 1 2 13% 30874 5415 42%
c p  1.03  0 79 16 3433 14 36091 5469 1.8 11 6 1 2 13% 30874 5415 42%
c c  1.04  0 79 16 3433 14 36091 5469 1.8 11 6 1 2 13% 30838 5415 42%
c 
c  seconds  reductions   conflicts       size  tier2      variables
c         MB     restarts     redundant     glue  trail        remaining
c          level       rate        size/glue tier1  irredundant
c 
c f  1.05  0 79 16 3433 14 36091 5454 1.8 11 6 1 2 13% 30800 5447 42%
c }  1.10  0 77 16 3843 13 38594 7731 1.8 11 6 1 2 13% 30800 5447 42%
c [  1.10  0 119 16 3843  2 38594 7731 2.5 43 17 3 9 29% 30800 5447 42%
c -  1.15  0 116 17 3844  2 40842 6300 2.5 43 17 3 9 30% 30800 5447 42%
c d  1.15  0 116 17 3844  2 40842 6289 2.5 43 17 3 9 30% 30800 5445 42%
c p  1.15  0 116 17 3844  2 40842 6294 2.5 43 17 3 9 30% 30800 5445 42%
c =  1.17  0 116 17 3844  2 40842 6294 2.5 43 17 3 9 30% 30797 5444 42%
c f  1.17  0 116 17 3844  2 40842 6292 2.5 43 17 3 9 30% 30766 5475 43%
c O  1.27  0 112 17 3847  2 45011 10221 2.5 44 17 3 9 28% 30766 5475 43%
c -  1.29  0 112 18 3847  2 45894 6896 2.6 45 18 3 9 29% 30766 5475 43%
c p  1.29  0 112 18 3847  2 45894 6898 2.6 45 18 3 9 29% 30766 5475 43%
c =  1.30  0 112 18 3847  2 45894 6895 2.6 45 18 3 9 29% 30766 5474 43%
c u  1.31  0 112 18 3847  2 45894 6321 2.6 45 18 3 9 29% 30764 5474 43%
c v  1.31  0 112 18 3847  2 45894 6147 2.6 45 18 3 9 29% 30764 5474 43%
c w  1.31  0 112 18 3847  2 45894 6147 2.6 45 18 3 9 29% 30764 5474 43%
c x  1.31  0 112 18 3847  2 45894 6147 2.6 45 18 3 9 29% 30742 5474 43%
c t  1.31  0 112 18 3847  2 45894 6146 2.6 45 18 3 9 29% 30742 5474 43%
c f  1.32  0 112 18 3847  2 45894 6142 2.6 45 18 3 9 29% 30742 5478 43%
c ]  1.38  0 110 18 3848  2 48789 8916 2.6 45 18 3 9 27% 30742 5478 43%
c {  1.38  0 77 18 3848 13 48789 8916 1.8 11 6 1 2 13% 30742 5478 43%
c 
c  seconds  reductions   conflicts        size  tier2      variables
c         MB     restarts      redundant     glue  trail        remaining
c          level       rate         size/glue tier1  irredundant
c 
c }  1.41  0 76 18 4108 13 50002 10043 1.8 11 6 1 2 13% 30742 5478 43%
c ?  1.41  0 76 18 4108 13 50002 10043 1.8 11 6 1 2 13% 30742 5478 43%
c 
c --- [ result ] -------------------------------------------------------------
c 
c UNKNOWN
c 
c --- [ run-time profiling ] -------------------------------------------------
c 
c process time taken by individual solving procedures
c (percentage relative to process time for solving)
c 
c         0.99   70.37% search
c         0.57   40.49% stable
c         0.41   29.45% simplify
c         0.40   28.41% unstable
c         0.12    8.45% congruence
c         0.09    6.20% sweep
c         0.06    4.60% factor
c         0.06    4.05% preprocess
c         0.04    2.68% elim
c         0.02    1.78% vivify
c         0.02    1.34% walk
c         0.02    1.09% fastelim
c         0.01    1.01% subsume
c         0.01    0.59% parse
c         0.00    0.35% backbone
c         0.00    0.14% probe
c         0.00    0.12% lucky
c         0.00    0.11% ternary
c   =================================
c         1.40   99.40% solve
c 
c last line shows process time for solving
c (percentage relative to total process time)
c 
c --- [ statistics ] ---------------------------------------------------------
c 
c chronological:             17879        35.76 %  of conflicts
c conflicts:                 50002     35688.90    per second
c backbone:                 319725      2352.82 %  of vars
c decisions:                360059    256991.89    per second
c eliminated:                 5218        38.40 %  of all variables
c factored:                    740        12.46 %  of variables
c fixed:                       943         6.94 %  of all variables
c learned:                   46809        93.61 %  per conflict
c learned_lits:            1535501       100.00 %  learned literals
c minimized:                     0         0.00 %  learned literals
c shrunken:                  56084         3.65 %  learned literals
c minishrunken:             125085         8.15 %  learned literals
c otfs:                       1975         3.95 %  of conflict
c propagations:            8926453         6.37 M  per second
c reduced:                   30529        61.06 %  per conflict
c rephased:                      9      5555.78    interval
c restarts:                   4108        12.17    interval
c stabilizing:                   6        50.40 %  of conflicts
c substituted:                1950        14.35 %  of all variables
c sweep equivs:                494        54.77 %  of swept variables
c subsumed:                   7644         5.44 %  of all clauses
c strengthened:               4038         2.88 %  of all clauses
c ticks:                  73236332         8.39    propagation
c vivified:                   1848         1.32 %  of all clauses
c walked:                        2     25001.00    interval
c weakened:                  35712         2.91    average size
c congruence:                   12      4166.83    interval
c 
c seconds are measured in process time for solving
c 
c --- [ glue usage ] ---------------------------------------------------------
c 
c focused glue 1 used 53580 clauses 66.65% accumulated 66.65% tier1
c focused glue 2 used 14793 clauses 18.40% accumulated 85.05% tier2
c 
c stable glue 3 used 11632 clauses 5.926% accumulated 77.95% tier1
c stable glue 4 used 7008 clauses 3.570% accumulated 81.52%
c stable glue 5-7 used 10958 clauses 5.583% accumulated 87.10%
c stable glue 8 used 2458 clauses 1.252% accumulated 88.36%
c stable glue 9 used 2040 clauses 1.039% accumulated 89.39% tier2
c 
c 
c --- [ resources ] ----------------------------------------------------------
c 
c total process time since initialization:         1.41    seconds
c total real time since initialization:            1.42    seconds
c maximum resident set size of process:        37872.00    MB
c 
c --- [ shutting down ] ------------------------------------------------------
c 
c exit 0
